p edge 79 253
e 1 2
e 1 3
e 1 4
e 1 11
e 1 12
e 1 13
e 1 17
e 1 43
e 1 45
e 1 46
e 1 55
e 1 56
e 1 58
e 2 5
e 2 6
e 2 9
e 2 12
e 2 17
e 2 19
e 2 21
e 2 28
e 2 32
e 2 42
e 2 43
e 2 45
e 2 47
e 2 76
e 3 4
e 3 17
e 3 21
e 3 27
e 3 28
e 3 29
e 3 30
e 3 32
e 3 33
e 3 43
e 3 55
e 3 57
e 3 58
e 4 6
e 4 8
e 4 10
e 4 11
e 4 13
e 4 26
e 4 31
e 4 40
e 4 43
e 4 55
e 4 56
e 4 58
e 5 8
e 5 12
e 5 13
e 5 17
e 5 32
e 5 33
e 5 42
e 5 47
e 5 49
e 5 57
e 5 78
e 6 8
e 6 11
e 6 18
e 6 19
e 6 22
e 6 24
e 6 35
e 6 51
e 6 52
e 6 62
e 7 10
e 7 18
e 7 26
e 7 29
e 7 41
e 7 49
e 7 70
e 8 12
e 8 21
e 8 52
e 8 67
e 8 74
e 8 78
e 9 10
e 9 12
e 9 17
e 9 27
e 9 43
e 9 49
e 9 53
e 9 55
e 9 76
e 10 17
e 10 53
e 10 58
e 10 65
e 10 71
e 11 18
e 11 22
e 11 26
e 11 31
e 11 35
e 11 39
e 11 40
e 11 46
e 11 52
e 12 32
e 12 45
e 12 78
e 13 17
e 13 25
e 13 32
e 13 33
e 13 38
e 13 44
e 13 57
e 14 16
e 14 39
e 14 44
e 14 45
e 15 28
e 15 36
e 15 37
e 15 44
e 15 50
e 15 54
e 16 20
e 16 44
e 17 21
e 17 27
e 17 32
e 17 33
e 17 43
e 17 57
e 17 65
e 17 76
e 18 22
e 18 26
e 18 31
e 18 35
e 18 40
e 18 52
e 18 59
e 18 70
e 18 72
e 19 20
e 19 23
e 19 61
e 19 72
e 20 29
e 20 30
e 20 47
e 21 22
e 21 48
e 21 52
e 21 53
e 22 35
e 22 40
e 22 52
e 22 53
e 23 34
e 23 50
e 23 61
e 23 63
e 23 64
e 23 72
e 24 42
e 24 47
e 24 51
e 24 52
e 25 33
e 25 34
e 25 38
e 25 44
e 25 57
e 26 31
e 26 40
e 26 50
e 26 75
e 27 28
e 27 43
e 27 49
e 28 44
e 29 30
e 29 32
e 29 33
e 29 48
e 29 49
e 29 57
e 29 75
e 30 32
e 30 33
e 30 48
e 30 57
e 30 75
e 31 40
e 31 51
e 32 33
e 32 42
e 32 57
e 33 38
e 33 44
e 33 57
e 34 38
e 35 36
e 35 37
e 35 52
e 35 61
e 36 77
e 37 50
e 37 54
e 37 61
e 38 42
e 38 44
e 38 47
e 38 57
e 39 45
e 41 63
e 41 64
e 42 47
e 42 49
e 43 55
e 43 56
e 43 58
e 43 76
e 44 57
e 46 67
e 46 68
e 46 73
e 48 75
e 48 79
e 50 54
e 51 52
e 51 61
e 54 62
e 55 58
e 56 58
e 56 65
e 59 70
e 59 72
e 60 71
e 61 72
e 62 66
e 62 69
e 63 64
e 66 69
e 67 68
e 67 73
e 68 73
e 70 72
